p cnf 251 404
-7 17 29 51 52 0
-7 17 29 51 -52 0
-7 17 29 -51 52 0
-7 17 29 -51 -52 0
17 -29 43 53 54 0
17 -29 43 53 -54 0
17 -29 43 -53 54 0
17 -29 43 -53 -54 0
17 -29 -43 55 56 0
17 -29 -43 55 -56 0
17 -29 -43 -55 56 0
17 -29 -43 -55 -56 0
4 15 -17 57 58 0
4 15 -17 57 -58 0
4 15 -17 -57 58 0
4 15 -17 -57 -58 0
-7 8 -15 59 60 0
-7 8 -15 59 -60 0
-7 8 -15 -59 60 0
-7 8 -15 -59 -60 0
4 -8 -15 61 62 0
4 -8 -15 61 -62 0
4 -8 -15 -61 62 0
4 -8 -15 -61 -62 0
-4 -7 -17 63 64 0
-4 -7 -17 63 -64 0
-4 -7 -17 -63 64 0
-4 -7 -17 -63 -64 0
3 7 41 65 66 0
3 7 41 65 -66 0
3 7 41 -65 66 0
3 7 41 -65 -66 0
3 15 -41 67 68 0
3 15 -41 67 -68 0
3 15 -41 -67 68 0
3 15 -41 -67 -68 0
3 7 -41 69 70 0
3 7 -41 69 -70 0
3 7 -41 -69 70 0
3 7 -41 -69 -70 0
-3 7 -31 71 72 0
-3 7 -31 71 -72 0
-3 7 -31 -71 72 0
-3 7 -31 -71 -72 0
-1 31 41 73 74 0
-1 31 41 73 -74 0
-1 31 41 -73 74 0
-1 31 41 -73 -74 0
-1 -3 31 75 76 0
-1 -3 31 75 -76 0
-1 -3 31 -75 76 0
-1 -3 31 -75 -76 0
1 -3 28 77 78 0
1 -3 28 77 -78 0
1 -3 28 -77 78 0
1 -3 28 -77 -78 0
1 -8 -28 79 80 0
1 -8 -28 79 -80 0
1 -8 -28 -79 80 0
1 -8 -28 -79 -80 0
1 25 -28 81 82 0
1 25 -28 81 -82 0
1 25 -28 -81 82 0
1 25 -28 -81 -82 0
14 -25 -28 83 84 0
14 -25 -28 83 -84 0
14 -25 -28 -83 84 0
14 -25 -28 -83 -84 0
-14 30 43 85 86 0
-14 30 43 85 -86 0
-14 30 43 -85 86 0
-14 30 43 -85 -86 0
-25 -30 43 87 88 0
-25 -30 43 87 -88 0
-25 -30 43 -87 88 0
-25 -30 43 -87 -88 0
14 -39 46 89 90 0
14 -39 46 89 -90 0
14 -39 46 -89 90 0
14 -39 46 -89 -90 0
-14 -39 46 91 92 0
-14 -39 46 91 -92 0
-14 -39 46 -91 92 0
-14 -39 46 -91 -92 0
-25 -39 -46 93 94 0
-25 -39 -46 93 -94 0
-25 -39 -46 -93 94 0
-25 -39 -46 -93 -94 0
-5 -14 -43 95 96 0
-5 -14 -43 95 -96 0
-5 -14 -43 -95 96 0
-5 -14 -43 -95 -96 0
5 9 -43 97 98 0
5 9 -43 97 -98 0
5 9 -43 -97 98 0
5 9 -43 -97 -98 0
-4 5 -9 99 100 0
-4 5 -9 99 -100 0
-4 5 -9 -99 100 0
-4 5 -9 -99 -100 0
-9 45 46 101 102 0
-9 45 46 101 -102 0
-9 45 46 -101 102 0
-9 45 46 -101 -102 0
5 45 -46 103 104 0
5 45 -46 103 -104 0
5 45 -46 -103 104 0
5 45 -46 -103 -104 0
-9 -20 -45 105 106 0
-9 -20 -45 105 -106 0
-9 -20 -45 -105 106 0
-9 -20 -45 -105 -106 0
2 31 -45 107 108 0
2 31 -45 107 -108 0
2 31 -45 -107 108 0
2 31 -45 -107 -108 0
2 20 -31 109 110 0
2 20 -31 109 -110 0
2 20 -31 -109 110 0
2 20 -31 -109 -110 0
-2 -17 -45 111 112 0
-2 -17 -45 111 -112 0
-2 -17 -45 -111 112 0
-2 -17 -45 -111 -112 0
-2 20 -24 113 114 0
-2 20 -24 113 -114 0
-2 20 -24 -113 114 0
-2 20 -24 -113 -114 0
-2 -18 24 115 116 0
-2 -18 24 115 -116 0
-2 -18 24 -115 116 0
-2 -18 24 -115 -116 0
18 24 -42 117 118 0
18 24 -42 117 -118 0
18 24 -42 -117 118 0
18 24 -42 -117 -118 0
24 42 -47 119 120 0
24 42 -47 119 -120 0
24 42 -47 -119 120 0
24 42 -47 -119 -120 0
13 18 -48 121 122 0
13 18 -48 121 -122 0
13 18 -48 -121 122 0
13 18 -48 -121 -122 0
-13 42 -48 123 124 0
-13 42 -48 123 -124 0
-13 42 -48 -123 124 0
-13 42 -48 -123 -124 0
18 -44 -48 125 126 0
18 -44 -48 125 -126 0
18 -44 -48 -125 126 0
18 -44 -48 -125 -126 0
-10 23 48 127 128 0
-10 23 48 127 -128 0
-10 23 48 -127 128 0
-10 23 48 -127 -128 0
-10 22 42 129 130 0
-10 22 42 129 -130 0
-10 22 42 -129 130 0
-10 22 42 -129 -130 0
-10 -22 -23 131 132 0
-10 -22 -23 131 -132 0
-10 -22 -23 -131 132 0
-10 -22 -23 -131 -132 0
10 -30 48 133 134 0
10 -30 48 133 -134 0
10 -30 48 -133 134 0
10 -30 48 -133 -134 0
2 21 22 135 136 0
2 21 22 135 -136 0
2 21 22 -135 136 0
2 21 22 -135 -136 0
21 22 48 137 138 0
21 22 48 137 -138 0
21 22 48 -137 138 0
21 22 48 -137 -138 0
10 21 -22 139 140 0
10 21 -22 139 -140 0
10 21 -22 -139 140 0
10 21 -22 -139 -140 0
-21 47 49 141 142 0
-21 47 49 141 -142 0
-21 47 49 -141 142 0
-21 47 49 -141 -142 0
34 38 49 143 144 0
34 38 49 143 -144 0
34 38 49 -143 144 0
34 38 49 -143 -144 0
34 -38 -47 145 146 0
34 -38 -47 145 -146 0
34 -38 -47 -145 146 0
34 -38 -47 -145 -146 0
10 -34 49 147 148 0
10 -34 49 147 -148 0
10 -34 49 -147 148 0
10 -34 49 -147 -148 0
-21 -41 -49 149 150 0
-21 -41 -49 149 -150 0
-21 -41 -49 -149 150 0
-21 -41 -49 -149 -150 0
-21 36 -49 151 152 0
-21 36 -49 151 -152 0
-21 36 -49 -151 152 0
-21 36 -49 -151 -152 0
-33 -36 -49 153 154 0
-33 -36 -49 153 -154 0
-33 -36 -49 -153 154 0
-33 -36 -49 -153 -154 0
-19 33 -36 155 156 0
-19 33 -36 155 -156 0
-19 33 -36 -155 156 0
-19 33 -36 -155 -156 0
13 25 37 157 158 0
13 25 37 157 -158 0
13 25 37 -157 158 0
13 25 37 -157 -158 0
13 -36 37 159 160 0
13 -36 37 159 -160 0
13 -36 37 -159 160 0
13 -36 37 -159 -160 0
-13 33 37 161 162 0
-13 33 37 161 -162 0
-13 33 37 -161 162 0
-13 33 37 -161 -162 0
-15 33 -37 163 164 0
-15 33 -37 163 -164 0
-15 33 -37 -163 164 0
-15 33 -37 -163 -164 0
15 32 -37 165 166 0
15 32 -37 165 -166 0
15 32 -37 -165 166 0
15 32 -37 -165 -166 0
11 -32 -37 167 168 0
11 -32 -37 167 -168 0
11 -32 -37 -167 168 0
11 -32 -37 -167 -168 0
-11 -12 -32 169 170 0
-11 -12 -32 169 -170 0
-11 -12 -32 -169 170 0
-11 -12 -32 -169 -170 0
20 27 -32 171 172 0
20 27 -32 171 -172 0
20 27 -32 -171 172 0
20 27 -32 -171 -172 0
-20 25 27 173 174 0
-20 25 27 173 -174 0
-20 25 27 -173 174 0
-20 25 27 -173 -174 0
-11 -20 27 175 176 0
-11 -20 27 175 -176 0
-11 -20 27 -175 176 0
-11 -20 27 -175 -176 0
-11 -22 -27 177 178 0
-11 -22 -27 177 -178 0
-11 -22 -27 -177 178 0
-11 -22 -27 -177 -178 0
6 30 47 179 180 0
6 30 47 179 -180 0
6 30 47 -179 180 0
6 30 47 -179 -180 0
6 30 -47 181 182 0
6 30 -47 181 -182 0
6 30 -47 -181 182 0
6 30 -47 -181 -182 0
12 23 -30 183 184 0
12 23 -30 183 -184 0
12 23 -30 -183 184 0
12 23 -30 -183 -184 0
6 12 -23 185 186 0
6 12 -23 185 -186 0
6 12 -23 -185 186 0
6 12 -23 -185 -186 0
-27 -38 39 187 188 0
-27 -38 39 187 -188 0
-27 -38 39 -187 188 0
-27 -38 39 -187 -188 0
-6 -27 -38 189 190 0
-6 -27 -38 189 -190 0
-6 -27 -38 -189 190 0
-6 -27 -38 -189 -190 0
-6 38 -44 191 192 0
-6 38 -44 191 -192 0
-6 38 -44 -191 192 0
-6 38 -44 -191 -192 0
-5 38 -44 193 194 0
-5 38 -44 193 -194 0
-5 38 -44 -193 194 0
-5 38 -44 -193 -194 0
-6 26 44 195 196 0
-6 26 44 195 -196 0
-6 26 44 -195 196 0
-6 26 44 -195 -196 0
-23 -26 44 197 198 0
-23 -26 44 197 -198 0
-23 -26 44 -197 198 0
-23 -26 44 -197 -198 0
8 16 50 199 200 0
8 16 50 199 -200 0
8 16 50 -199 200 0
8 16 50 -199 -200 0
8 -26 50 201 202 0
8 -26 50 201 -202 0
8 -26 50 -201 202 0
8 -26 50 -201 -202 0
-8 44 50 203 204 0
-8 44 50 203 -204 0
-8 44 50 -203 204 0
-8 44 50 -203 -204 0
-13 -26 -50 205 206 0
-13 -26 -50 205 -206 0
-13 -26 -50 -205 206 0
-13 -26 -50 -205 -206 0
19 23 -40 207 208 0
19 23 -40 207 -208 0
19 23 -40 -207 208 0
19 23 -40 -207 -208 0
-19 -40 41 209 210 0
-19 -40 41 209 -210 0
-19 -40 41 -209 210 0
-19 -40 41 -209 -210 0
-19 -40 -50 211 212 0
-19 -40 -50 211 -212 0
-19 -40 -50 -211 212 0
-19 -40 -50 -211 -212 0
16 40 47 213 214 0
16 40 47 213 -214 0
16 40 47 -213 214 0
16 40 47 -213 -214 0
16 40 -50 215 216 0
16 40 -50 215 -216 0
16 40 -50 -215 216 0
16 40 -50 -215 -216 0
-16 35 40 217 218 0
-16 35 40 217 -218 0
-16 35 40 -217 218 0
-16 35 40 -217 -218 0
-16 -35 -46 219 220 0
-16 -35 -46 219 -220 0
-16 -35 -46 -219 220 0
-16 -35 -46 -219 -220 0
4 -16 -34 221 222 0
4 -16 -34 221 -222 0
4 -16 -34 -221 222 0
4 -16 -34 -221 -222 0
-4 -34 -35 223 224 0
-4 -34 -35 223 -224 0
-4 -34 -35 -223 224 0
-4 -34 -35 -223 -224 0
-29 34 -35 225 226 0
-29 34 -35 225 -226 0
-29 34 -35 -225 226 0
-29 34 -35 -225 -226 0
-31 32 39 227 228 0
-31 32 39 227 -228 0
-31 32 39 -227 228 0
-31 32 39 -227 -228 0
11 -24 29 229 230 0
11 -24 29 229 -230 0
11 -24 29 -229 230 0
11 -24 29 -229 -230 0
-5 35 45 231 232 0
-5 35 45 231 -232 0
-5 35 45 -231 232 0
-5 35 45 -231 -232 0
-12 26 233 234 235 0
-12 26 233 234 -235 0
-12 26 233 -234 235 0
-12 26 233 -234 -235 0
-12 26 -233 234 235 0
-12 26 -233 234 -235 0
-12 26 -233 -234 235 0
-12 26 -233 -234 -235 0
-12 14 -18 236 237 0
-12 14 -18 236 -237 0
-12 14 -18 -236 237 0
-12 14 -18 -236 -237 0
11 -18 28 238 239 0
11 -18 28 238 -239 0
11 -18 28 -238 239 0
11 -18 28 -238 -239 0
19 -33 39 240 241 0
19 -33 39 240 -241 0
19 -33 39 -240 241 0
19 -33 39 -240 -241 0
-1 -33 -42 242 243 0
-1 -33 -42 242 -243 0
-1 -33 -42 -242 243 0
-1 -33 -42 -242 -243 0
28 29 35 244 245 0
28 29 35 244 -245 0
28 29 35 -244 245 0
28 29 35 -244 -245 0
19 32 36 246 247 0
19 32 36 246 -247 0
19 32 36 -246 247 0
19 32 36 -246 -247 0
9 12 -24 248 249 0
9 12 -24 248 -249 0
9 12 -24 -248 249 0
9 12 -24 -248 -249 0
9 36 -42 250 251 0
9 36 -42 250 -251 0
9 36 -42 -250 251 0
9 36 -42 -250 -251 0
